
Starting CP-SAT solver v9.14.6206
Parameters: max_time_in_seconds: 600 log_search_progress: true relative_gap_limit: 0
Setting number of workers to 20

Initial optimization model '': (model_fingerprint: 0xb981094684010709)
#Variables: 580 (#ints: 86 in objective) (494 primary variables)
  - 86 in [0,18119]
  - 74 in [1440,18119]
  - 420 in [2880,18119]
#kInterval: 250 (#fixed: 3)
#kLinMax: 86 (#expressions: 172)
#kLinear1: 32
#kLinear2: 215
#kNoOverlap: 10 (#intervals: 250, #fixed_intervals: 3)

Starting presolve at 0.00s
  1.21e-04s  0.00e+00d  [DetectDominanceRelations] 
  3.13e-03s  0.00e+00d  [operations_research::sat::CpModelPresolver::PresolveToFixPoint] #num_loops=10 #num_dual_strengthening=1 
  7.20e-06s  0.00e+00d  [operations_research::sat::CpModelPresolver::ExtractEncodingFromLinear] 
  2.99e-05s  0.00e+00d  [operations_research::sat::CpModelPresolver::DetectDuplicateColumns] 
  1.16e-04s  0.00e+00d  [operations_research::sat::CpModelPresolver::DetectDuplicateConstraints] 
[Symmetry] Graph for symmetry has 1'386 nodes and 1'342 arcs.
[Symmetry] Symmetry computation done. time: 0.0001242 dtime: 0.00022024
  1.14e-04s  0.00e+00d  [operations_research::sat::CpModelPresolver::DetectDuplicateConstraintsWithDifferentEnforcements] 
  9.19e-04s  4.50e-06d  [operations_research::sat::CpModelPresolver::Probe] #new_bounds=17 
  5.70e-06s  0.00e+00d  [MaxClique] 
  1.08e-04s  0.00e+00d  [DetectDominanceRelations] 
  7.46e-04s  0.00e+00d  [operations_research::sat::CpModelPresolver::PresolveToFixPoint] #num_loops=3 #num_dual_strengthening=2 
  6.61e-05s  0.00e+00d  [operations_research::sat::CpModelPresolver::ProcessAtMostOneAndLinear] 
  1.38e-04s  0.00e+00d  [operations_research::sat::CpModelPresolver::DetectDuplicateConstraints] 
  1.12e-04s  0.00e+00d  [operations_research::sat::CpModelPresolver::DetectDuplicateConstraintsWithDifferentEnforcements] 
  7.48e-05s  1.80e-06d  [operations_research::sat::CpModelPresolver::DetectDominatedLinearConstraints] #relevant_constraints=299 
  5.57e-05s  0.00e+00d  [operations_research::sat::CpModelPresolver::DetectDifferentVariables] 
  4.60e-06s  0.00e+00d  [operations_research::sat::CpModelPresolver::ProcessSetPPC] 
  7.00e-06s  0.00e+00d  [operations_research::sat::CpModelPresolver::FindAlmostIdenticalLinearConstraints] 
  1.54e-05s  0.00e+00d  [operations_research::sat::CpModelPresolver::FindBigAtMostOneAndLinearOverlap] 
  4.16e-05s  1.06e-05d  [operations_research::sat::CpModelPresolver::FindBigVerticalLinearOverlap] 
  4.50e-06s  0.00e+00d  [operations_research::sat::CpModelPresolver::FindBigHorizontalLinearOverlap] 
  7.60e-06s  0.00e+00d  [operations_research::sat::CpModelPresolver::MergeClauses] 
  9.91e-05s  0.00e+00d  [DetectDominanceRelations] 
  5.58e-04s  0.00e+00d  [operations_research::sat::CpModelPresolver::PresolveToFixPoint] #num_loops=1 #num_dual_strengthening=1 
  9.23e-05s  0.00e+00d  [DetectDominanceRelations] 
  5.10e-04s  0.00e+00d  [operations_research::sat::CpModelPresolver::PresolveToFixPoint] #num_loops=1 #num_dual_strengthening=1 
  2.41e-05s  0.00e+00d  [operations_research::sat::CpModelPresolver::DetectDuplicateColumns] 
  1.05e-04s  0.00e+00d  [operations_research::sat::CpModelPresolver::DetectDuplicateConstraints] 
[Symmetry] Graph for symmetry has 1'383 nodes and 1'339 arcs.
[Symmetry] Symmetry computation done. time: 0.0001057 dtime: 0.00022006
  1.05e-04s  0.00e+00d  [operations_research::sat::CpModelPresolver::DetectDuplicateConstraintsWithDifferentEnforcements] 
  7.51e-04s  2.31e-06d  [operations_research::sat::CpModelPresolver::Probe] 
  5.80e-06s  0.00e+00d  [MaxClique] 
  9.36e-05s  0.00e+00d  [DetectDominanceRelations] 
  5.18e-04s  0.00e+00d  [operations_research::sat::CpModelPresolver::PresolveToFixPoint] #num_loops=1 #num_dual_strengthening=1 
  6.03e-05s  0.00e+00d  [operations_research::sat::CpModelPresolver::ProcessAtMostOneAndLinear] 
  1.02e-04s  0.00e+00d  [operations_research::sat::CpModelPresolver::DetectDuplicateConstraints] 
  9.44e-05s  0.00e+00d  [operations_research::sat::CpModelPresolver::DetectDuplicateConstraintsWithDifferentEnforcements] 
  5.30e-05s  1.80e-06d  [operations_research::sat::CpModelPresolver::DetectDominatedLinearConstraints] #relevant_constraints=299 
  4.55e-05s  0.00e+00d  [operations_research::sat::CpModelPresolver::DetectDifferentVariables] 
  4.10e-06s  0.00e+00d  [operations_research::sat::CpModelPresolver::ProcessSetPPC] 
  6.10e-06s  0.00e+00d  [operations_research::sat::CpModelPresolver::FindAlmostIdenticalLinearConstraints] 
  1.41e-05s  0.00e+00d  [operations_research::sat::CpModelPresolver::FindBigAtMostOneAndLinearOverlap] 
  3.61e-05s  1.06e-05d  [operations_research::sat::CpModelPresolver::FindBigVerticalLinearOverlap] 
  4.10e-06s  0.00e+00d  [operations_research::sat::CpModelPresolver::FindBigHorizontalLinearOverlap] 
  1.58e-05s  0.00e+00d  [operations_research::sat::CpModelPresolver::MergeClauses] 
  1.06e-04s  0.00e+00d  [DetectDominanceRelations] 
  5.43e-04s  0.00e+00d  [operations_research::sat::CpModelPresolver::PresolveToFixPoint] #num_loops=1 #num_dual_strengthening=1 
  2.46e-05s  0.00e+00d  [operations_research::sat::CpModelPresolver::ExpandObjective] 

Presolve summary:
  - 247 affine relations were detected.
  - rule 'TODO dual: only one blocking constraint?' was applied 630 times.
  - rule 'TODO dual: only one unspecified blocking constraint?' was applied 588 times.
  - rule 'affine: new relation' was applied 247 times.
  - rule 'dual: reduced domain' was applied 5 times.
  - rule 'intervals: removed unused interval' was applied 3 times.
  - rule 'lin_max: converted to equality' was applied 2 times.
  - rule 'lin_max: removed exprs' was applied 2 times.
  - rule 'lin_max: rewrite with precedences' was applied 84 times.
  - rule 'lin_max: target domain reduced' was applied 86 times.
  - rule 'linear1: x in domain' was applied 11 times.
  - rule 'linear: always true' was applied 107 times.
  - rule 'linear: fixed or dup variables' was applied 2 times.
  - rule 'linear: reduced variable domains' was applied 1'289 times.
  - rule 'linear: remapped using affine relations' was applied 526 times.
  - rule 'no_overlap: split into disjoint components' was applied 3 times.
  - rule 'objective: variable not used elsewhere' was applied 2 times.
  - rule 'presolve: 2 unused variables removed.' was applied 1 time.
  - rule 'presolve: iteration' was applied 2 times.

Presolved optimization model '': (model_fingerprint: 0xfb0aafa27d3a4526)
#Variables: 331 (#ints: 84 in objective) (247 primary variables)
  - 210 different domains in [0,18098] with a largest complexity of 1.
#kInterval: 247
#kLinear2: 299
#kNoOverlap: 10 (#intervals: 247)
[Symmetry] Graph for symmetry has 1'134 nodes and 1'339 arcs.
[Symmetry] Symmetry computation done. time: 9.89e-05 dtime: 0.00020512

Preloading model.
#Bound   0.01s best:inf   next:[0,1373206] initial_domain
#Model   0.01s var:331/331 constraints:556/556

Starting search at 0.01s with 20 workers.
13 full problem subsolvers: [core, default_lp, fixed, lb_tree_search, max_lp, no_lp, objective_lb_search, objective_shaving_no_lp, probing, pseudo_costs, quick_restart, quick_restart_no_lp, reduced_costs]
7 first solution subsolvers: [fj(2), fj_lin, fs_random, fs_random_no_lp, fs_random_quick_restart, fs_random_quick_restart_no_lp]
17 interleaved subsolvers: [feasibility_pump, graph_arc_lns, graph_cst_lns, graph_dec_lns, graph_var_lns, lb_relax_lns, ls(2), ls_lin, rins/rens, rnd_cst_lns, rnd_var_lns, scheduling_intervals_lns, scheduling_precedences_lns, scheduling_resource_windows_lns, scheduling_time_window_lns, variables_shaving]
3 helper subsolvers: [neighborhood_helper, synchronization_agent, update_gap_integral]

#1       0.03s best:33255 next:[0,33254]  no_lp
#2       0.03s best:320   next:[0,319]    core
#3       0.05s best:319   next:[0,318]    graph_dec_lns (d=5.00e-01 s=26 t=0.10 p=0.00 stall=0 h=base) [hint]
#4       0.08s best:318   next:[0,317]    fixed
#5       0.09s best:227   next:[0,226]    rnd_var_lns (d=5.00e-01 s=21 t=0.10 p=0.00 stall=0 h=base)
#Bound   0.12s best:227   next:[4,226]    objective_lb_search
#Bound   0.12s best:227   next:[6,226]    objective_lb_search
#Bound   0.13s best:227   next:[12,226]   objective_lb_search
#Bound   0.13s best:227   next:[13,226]   objective_lb_search
#Bound   0.13s best:227   next:[14,226]   bool_core (num_cores=1 [cover] a=83 d=2 fixed=14/394 clauses=278)
#Bound   0.13s best:227   next:[15,226]   bool_core (num_cores=1 [cover] a=83 d=2 fixed=15/401 clauses=320)
#Bound   0.13s best:227   next:[16,226]   bool_core (num_cores=1 [cover] a=83 d=2 fixed=16/408 clauses=365)
#Bound   0.13s best:227   next:[17,226]   bool_core (num_cores=1 [cover] a=83 d=2 fixed=17/415 clauses=413)
#Bound   0.13s best:227   next:[18,226]   bool_core (num_cores=1 [cover] a=83 d=2 fixed=18/422 clauses=464)
#Bound   0.13s best:227   next:[19,226]   bool_core (num_cores=1 [cover] a=83 d=2 fixed=19/429 clauses=518)
#Bound   0.13s best:227   next:[20,226]   bool_core (num_cores=1 [cover] a=83 d=2 fixed=20/436 clauses=575)
#Bound   0.13s best:227   next:[21,226]   bool_core (num_cores=1 [cover] a=83 d=2 fixed=21/443 clauses=635)
#Bound   0.13s best:227   next:[22,226]   bool_core (num_cores=1 [cover] a=83 d=2 fixed=22/450 clauses=698)
#6       0.14s best:22    next:[]         graph_arc_lns (d=5.00e-01 s=24 t=0.10 p=0.00 stall=0 h=base)
#Done    0.14s core

Task timing                                  n [     min,      max]      avg      dev     time         n [     min,      max]      avg      dev    dtime
                             'core':         1 [129.57ms, 129.57ms] 129.57ms   0.00ns 129.57ms         1 [  4.21ms,   4.21ms]   4.21ms   0.00ns   4.21ms
                       'default_lp':         1 [129.85ms, 129.85ms] 129.85ms   0.00ns 129.85ms         1 [ 15.52ms,  15.52ms]  15.52ms   0.00ns  15.52ms
                 'feasibility_pump':         1 [  6.34ms,   6.34ms]   6.34ms   0.00ns   6.34ms         0 [  0.00ns,   0.00ns]   0.00ns   0.00ns   0.00ns
                            'fixed':         1 [129.71ms, 129.71ms] 129.71ms   0.00ns 129.71ms         1 [  9.28ms,   9.28ms]   9.28ms   0.00ns   9.28ms
                               'fj':         1 [105.99ms, 105.99ms] 105.99ms   0.00ns 105.99ms         1 [100.26ms, 100.26ms] 100.26ms   0.00ns 100.26ms
                               'fj':         1 [109.90ms, 109.90ms] 109.90ms   0.00ns 109.90ms         1 [100.09ms, 100.09ms] 100.09ms   0.00ns 100.09ms
                           'fj_lin':         0 [  0.00ns,   0.00ns]   0.00ns   0.00ns   0.00ns         0 [  0.00ns,   0.00ns]   0.00ns   0.00ns   0.00ns
                        'fs_random':         1 [ 13.94ms,  13.94ms]  13.94ms   0.00ns  13.94ms         1 [206.98us, 206.98us] 206.98us   0.00ns 206.98us
                  'fs_random_no_lp':         1 [ 14.12ms,  14.12ms]  14.12ms   0.00ns  14.12ms         1 [498.29us, 498.29us] 498.29us   0.00ns 498.29us
          'fs_random_quick_restart':         1 [ 13.52ms,  13.52ms]  13.52ms   0.00ns  13.52ms         1 [348.55us, 348.55us] 348.55us   0.00ns 348.55us
    'fs_random_quick_restart_no_lp':         1 [ 13.73ms,  13.73ms]  13.73ms   0.00ns  13.73ms         1 [424.15us, 424.15us] 424.15us   0.00ns 424.15us
                    'graph_arc_lns':         1 [105.65ms, 105.65ms] 105.65ms   0.00ns 105.65ms         1 [  5.07ms,   5.07ms]   5.07ms   0.00ns   5.07ms
                    'graph_cst_lns':         1 [  1.05ms,   1.05ms]   1.05ms   0.00ns   1.05ms         0 [  0.00ns,   0.00ns]   0.00ns   0.00ns   0.00ns
                    'graph_dec_lns':         1 [  6.37ms,   6.37ms]   6.37ms   0.00ns   6.37ms         1 [ 49.25us,  49.25us]  49.25us   0.00ns  49.25us
                    'graph_var_lns':         1 [111.03ms, 111.03ms] 111.03ms   0.00ns 111.03ms         1 [  4.18ms,   4.18ms]   4.18ms   0.00ns   4.18ms
                     'lb_relax_lns':         1 [ 94.71ms,  94.71ms]  94.71ms   0.00ns  94.71ms         1 [  2.41ms,   2.41ms]   2.41ms   0.00ns   2.41ms
                   'lb_tree_search':         1 [127.92ms, 127.92ms] 127.92ms   0.00ns 127.92ms         0 [  0.00ns,   0.00ns]   0.00ns   0.00ns   0.00ns
                               'ls':         0 [  0.00ns,   0.00ns]   0.00ns   0.00ns   0.00ns         0 [  0.00ns,   0.00ns]   0.00ns   0.00ns   0.00ns
                               'ls':         0 [  0.00ns,   0.00ns]   0.00ns   0.00ns   0.00ns         0 [  0.00ns,   0.00ns]   0.00ns   0.00ns   0.00ns
                           'ls_lin':         0 [  0.00ns,   0.00ns]   0.00ns   0.00ns   0.00ns         0 [  0.00ns,   0.00ns]   0.00ns   0.00ns   0.00ns
                           'max_lp':         1 [130.85ms, 130.85ms] 130.85ms   0.00ns 130.85ms         1 [  8.22ms,   8.22ms]   8.22ms   0.00ns   8.22ms
                            'no_lp':         1 [129.46ms, 129.46ms] 129.46ms   0.00ns 129.46ms         1 [ 11.21ms,  11.21ms]  11.21ms   0.00ns  11.21ms
              'objective_lb_search':         1 [125.23ms, 125.23ms] 125.23ms   0.00ns 125.23ms         0 [  0.00ns,   0.00ns]   0.00ns   0.00ns   0.00ns
          'objective_shaving_no_lp':         1 [ 25.33ms,  25.33ms]  25.33ms   0.00ns  25.33ms         1 [ 74.42us,  74.42us]  74.42us   0.00ns  74.42us
                          'probing':         1 [127.96ms, 127.96ms] 127.96ms   0.00ns 127.96ms         0 [  0.00ns,   0.00ns]   0.00ns   0.00ns   0.00ns
                     'pseudo_costs':         1 [132.30ms, 132.30ms] 132.30ms   0.00ns 132.30ms         1 [ 14.58ms,  14.58ms]  14.58ms   0.00ns  14.58ms
                    'quick_restart':         1 [128.91ms, 128.91ms] 128.91ms   0.00ns 128.91ms         1 [ 11.71ms,  11.71ms]  11.71ms   0.00ns  11.71ms
              'quick_restart_no_lp':         1 [126.04ms, 126.04ms] 126.04ms   0.00ns 126.04ms         0 [  0.00ns,   0.00ns]   0.00ns   0.00ns   0.00ns
                    'reduced_costs':         1 [128.63ms, 128.63ms] 128.63ms   0.00ns 128.63ms         0 [  0.00ns,   0.00ns]   0.00ns   0.00ns   0.00ns
                        'rins/rens':         1 [ 19.39ms,  19.39ms]  19.39ms   0.00ns  19.39ms         1 [456.40us, 456.40us] 456.40us   0.00ns 456.40us
                      'rnd_cst_lns':         1 [ 12.10ms,  12.10ms]  12.10ms   0.00ns  12.10ms         1 [ 73.24us,  73.24us]  73.24us   0.00ns  73.24us
                      'rnd_var_lns':         1 [ 56.35ms,  56.35ms]  56.35ms   0.00ns  56.35ms         1 [  3.48ms,   3.48ms]   3.48ms   0.00ns   3.48ms
         'scheduling_intervals_lns':         1 [ 91.27ms,  91.27ms]  91.27ms   0.00ns  91.27ms         1 [475.18us, 475.18us] 475.18us   0.00ns 475.18us
       'scheduling_precedences_lns':         1 [  7.69ms,   7.69ms]   7.69ms   0.00ns   7.69ms         0 [  0.00ns,   0.00ns]   0.00ns   0.00ns   0.00ns
  'scheduling_resource_windows_lns':         1 [ 54.80ms,  54.80ms]  54.80ms   0.00ns  54.80ms         1 [881.24us, 881.24us] 881.24us   0.00ns 881.24us
       'scheduling_time_window_lns':         1 [ 89.65ms,  89.65ms]  89.65ms   0.00ns  89.65ms         1 [930.21us, 930.21us] 930.21us   0.00ns 930.21us
                'variables_shaving':         1 [ 36.62ms,  36.62ms]  36.62ms   0.00ns  36.62ms         1 [  1.17ms,   1.17ms]   1.17ms   0.00ns   1.17ms

Search stats                        Bools  Conflicts  Branches  Restarts  BoolPropag  IntegerPropag
                           'core':    457         25     2'224       630       2'039         26'985
                     'default_lp':    446         56     1'142       418       3'521        124'724
                          'fixed':    551         14     1'270       341       2'383         67'997
                      'fs_random':     15          0        15         0           0            600
                'fs_random_no_lp':    113          0       113         0           0          3'756
        'fs_random_quick_restart':     29          0        29         0           0          1'203
  'fs_random_quick_restart_no_lp':     94          0        94         0           0          3'226
                 'lb_tree_search':  2'946          0     1'688     1'688           0         12'531
                         'max_lp':    261          7       266         1          16         10'730
                          'no_lp':    407         51     1'040       432       1'360         93'634
            'objective_lb_search':    395         21       932       405       2'328         83'823
                        'probing':  2'946          0     1'626     1'626           0         12'117
                   'pseudo_costs':    256          8       260         2          16         11'437
                  'quick_restart':    408         18     1'272       425       2'056         90'114
            'quick_restart_no_lp':    457         72     1'244       358       2'885        129'364
                  'reduced_costs':  2'946          0     1'884     1'884           0         13'411

SAT stats                           ClassicMinim  LitRemoved  LitLearned  LitForgotten  Subsumed  MClauses  MDecisions  MLitTrue  MSubsumed  MLitRemoved  MReused
                           'core':             3          14         140             0         0         0           0         0          0            0        0
                     'default_lp':            32          66         743             0         0         0           0         0          0            0        0
                          'fixed':             0           0          42             0         0         0           0         0          0            0        0
                      'fs_random':             0           0           0             0         0         0           0         0          0            0        0
                'fs_random_no_lp':             0           0           0             0         0         0           0         0          0            0        0
        'fs_random_quick_restart':             0           0           0             0         0         0           0         0          0            0        0
  'fs_random_quick_restart_no_lp':             0           0           0             0         0         0           0         0          0            0        0
                 'lb_tree_search':             0           0           0             0         0         0           0         0          0            0        0
                         'max_lp':             0           0          21             0         0         0           0         0          0            0        0
                          'no_lp':            41          98       2'854             0         0         0           0         0          0            0        0
            'objective_lb_search':            14          14         270             0         0         0           0         0          0            0        0
                        'probing':             0           0           0             0         0         0           0         0          0            0        0
                   'pseudo_costs':             0           0          22             0         0         0           0         0          0            0        0
                  'quick_restart':             6          10         265             0         0         0           0         0          0            0        0
            'quick_restart_no_lp':            11          15         725             0         0         0           0         0          0            0        0
                  'reduced_costs':             0           0           0             0         0         0           0         0          0            0        0

Lp stats                      Component  Iterations  AddedCuts  OPTIMAL  DUAL_F.  DUAL_U.
               'default_lp':         32         569          0    1'364        0        0
                    'fixed':         32         759          0    1'362        0        0
                'fs_random':         32         154          0      310        0        0
  'fs_random_quick_restart':         32         187          0      395        0        0
           'lb_tree_search':          1           0          0        0        0        0
                   'max_lp':          1         568        334      165        1        0
      'objective_lb_search':         32         524          0    1'261        0        0
                  'probing':         32           0          0        0        0        0
             'pseudo_costs':          1         699        833      167        7        0
            'quick_restart':         32         679          0    1'510        0        0
            'reduced_costs':          1           0          0        0        0        0

Lp dimension                   Final dimension of first component
               'default_lp':         1 rows, 9 columns, 2 entries
                    'fixed':         1 rows, 9 columns, 2 entries
                'fs_random':         1 rows, 9 columns, 2 entries
  'fs_random_quick_restart':         1 rows, 9 columns, 2 entries
           'lb_tree_search':   299 rows, 331 columns, 598 entries
                   'max_lp':   217 rows, 331 columns, 792 entries
      'objective_lb_search':         1 rows, 9 columns, 2 entries
                  'probing':         0 rows, 9 columns, 0 entries
             'pseudo_costs':  213 rows, 331 columns, 1018 entries
            'quick_restart':         1 rows, 9 columns, 2 entries
            'reduced_costs':       0 rows, 331 columns, 0 entries

Lp debug                      CutPropag  CutEqPropag  Adjust  Overflow  Bad  BadScaling
               'default_lp':          0            0       0         0    0           0
                    'fixed':          0            0       0         0    0           0
                'fs_random':          0            0       0         0    0           0
  'fs_random_quick_restart':          0            0       0         0    0           0
           'lb_tree_search':          0            0       0         0    0           0
                   'max_lp':          0            2       0         0  794           0
      'objective_lb_search':          0            0       0         0    0           0
                  'probing':          0            0       0         0    0           0
             'pseudo_costs':          0            0       0         0  329           0
            'quick_restart':          0            0       0         0    0           0
            'reduced_costs':          0            0       0         0    0           0

Lp pool                       Constraints  Updates  Simplif  Merged  Shortened  Split  Strenghtened  Cuts/Call
               'default_lp':          299        0        0       0          0      0             0        0/0
                    'fixed':          299        0        0       0          0      0             0        0/0
                'fs_random':          299        0        0       0          0      0             0        0/0
  'fs_random_quick_restart':          299        0        0       0          0      0             0        0/0
           'lb_tree_search':          299        0        0       0          0      0             0        0/0
                   'max_lp':          617      269       26      16          0      0             0    334/422
      'objective_lb_search':          299        0        0       0          0      0             0        0/0
                  'probing':          299        0        0       0          0      0             0        0/0
             'pseudo_costs':        1'061      170      747      71          0      0             0  833/1'163
            'quick_restart':          299        0        0       0          0      0             0        0/0
            'reduced_costs':          299        0        0       0          0      0             0        0/0

Lp Cut                                                max_lp  pseudo_costs
                                               CG_R:      15             7
                                            MIR_1_K:       -             5
                                            MIR_1_R:       3            14
                                            MIR_2_R:       -             2
                  NoOverlapCompletionTimeExhaustive:      10            24
           NoOverlapCompletionTimeExhaustive_lifted:       9            41
  NoOverlapCompletionTimeExhaustive_lifted_weighted:      29           104
         NoOverlapCompletionTimeExhaustive_weighted:      23            34
                    NoOverlapCompletionTimeQueyrane:      50           126
             NoOverlapCompletionTimeQueyrane_lifted:      79           214
                        NoOverlapDetectedPrecedence:       9            23
                          NoOverlapDisjunctionOnEnd:       2             -
                        NoOverlapDisjunctionOnStart:     102           236
                                        ZERO_HALF_R:       3             3

LNS stats                             Improv/Calls  Closed  Difficulty  TimeLimit
                    'graph_arc_lns':           1/1    100%    7.07e-01       0.10
                    'graph_cst_lns':           1/1    100%    7.07e-01       0.10
                    'graph_dec_lns':           1/1    100%    7.07e-01       0.10
                    'graph_var_lns':           1/1      0%    2.93e-01       0.10
                     'lb_relax_lns':           1/1      0%    2.93e-01       0.50
                        'rins/rens':           1/1      0%    2.93e-01       0.10
                      'rnd_cst_lns':           0/1    100%    7.07e-01       0.10
                      'rnd_var_lns':           1/1    100%    7.07e-01       0.10
         'scheduling_intervals_lns':           0/1      0%    2.93e-01       0.10
       'scheduling_precedences_lns':           0/0      0%    5.00e-01       0.10
  'scheduling_resource_windows_lns':           1/1      0%    2.93e-01       0.10
       'scheduling_time_window_lns':           0/1      0%    2.93e-01       0.10

LS stats                                    Batches  Restarts/Perturbs  LinMoves  GenMoves  CompoundMoves  Bactracks  WeightUpdates  ScoreComputed
                             'fj_restart':        1                  1        52     1'072              0          0             12        212'423
  'fj_restart_decay_compound_perturb_obj':        1                  1         0     2'700          1'026        837             10        203'493

Solutions (6)       Num   Rank
           'core':    1  [2,2]
          'fixed':    1  [4,4]
  'graph_arc_lns':    1  [6,6]
  'graph_dec_lns':    1  [3,3]
          'no_lp':    1  [1,1]
    'rnd_var_lns':    1  [5,5]

Objective bounds          Num
            'bool_core':    9
       'initial_domain':    1
  'objective_lb_search':    4

Solution repositories    Added  Queried  Synchro
  'feasible solutions':     23       25       12
   'fj solution hints':      0        0        0
        'lp solutions':      4        1        1
                'pump':      0        0

Improving bounds shared    Num  Sym
            'default_lp':    8    0
                 'fixed':  318    0
                 'no_lp':  287    0
   'objective_lb_search':  188    0
          'pseudo_costs':    1    0
         'quick_restart':    2    0
   'quick_restart_no_lp':  642    0

CpSolverResponse summary:
status: OPTIMAL
objective: 22
best_bound: 22
integers: 332
booleans: 113
conflicts: 0
branches: 113
propagations: 0
integer_propagations: 3756
restarts: 0
lp_iterations: 0
walltime: 0.162745
usertime: 0.162745
deterministic_time: 0.295854
gap_integral: 1.16097
solution_fingerprint: 0xa7a09843fbf2d559

